
Gurobi 9.0.0 (mac64, Python) logging started Sun Nov 24 02:44:23 2019

Using license file /Users/vikranth/gurobi.lic
Set parameter LogFile to value gurobi.log

Gurobi 9.0.0 (mac64, Python) logging started Sun Nov 24 03:00:58 2019

Using license file /Users/vikranth/gurobi.lic
Set parameter LogFile to value gurobi.log

Gurobi 9.0.0 (mac64, Python) logging started Sun Nov 24 12:35:01 2019

Using license file /Users/vikranth/gurobi.lic
Set parameter LogFile to value gurobi.log
